c preprocessed version of RandomGNM_500_500, 103 vertices, 184 edges
p td 103 184
0 1
95 0
28 0
87 0
2 1
69 1
15 1
3 2
14 2
3 4
67 3
64 3
93 3
88 3
5 4
88 4
81 4
6 5
44 5
6 7
79 6
8 7
64 7
9 8
99 8
10 9
27 9
10 11
66 10
11 12
18 11
13 12
13 14
13 44
50 13
15 14
14 33
98 14
16 15
17 16
30 16
18 17
84 17
76 17
19 18
65 18
19 20
19 31
21 20
80 20
22 21
29 21
22 23
91 22
24 23
92 23
25 24
53 24
25 26
97 25
26 27
91 26
28 27
28 29
92 28
61 28
82 28
30 29
30 31
98 30
81 30
31 32
32 33
32 99
50 32
33 34
35 34
40 34
36 35
43 35
36 37
45 36
71 36
37 38
37 84
39 38
76 38
67 38
39 40
93 39
41 40
41 42
41 86
41 96
41 99
94 41
43 42
87 42
43 44
98 43
45 44
75 44
46 45
46 47
72 46
47 48
68 47
90 47
94 47
49 48
59 48
93 48
56 48
81 48
49 50
49 67
90 49
51 50
74 50
51 52
51 65
51 77
52 53
80 52
53 54
55 54
78 54
55 56
74 55
56 57
57 58
57 95
58 59
94 58
60 59
60 61
74 60
62 61
63 62
68 62
63 64
63 66
65 64
66 67
68 69
70 68
81 68
70 71
78 70
72 71
72 73
72 77
73 74
73 75
75 76
77 76
79 78
80 79
82 81
82 83
83 84
83 85
86 85
92 85
87 86
88 87
88 89
90 89
91 89
92 93
95 96
97 96
100 72
100 101
100 97
100 69
101 102
101 72
101 12
101 49
102 100
102 28
102 84
102 89
